CMD:
./solvers/bin/cadical --plain --no-reduce -t 1600 ./data/cnfs//pdtswvtms14x8p1/pdtswvtms14x8p1.77.cnf

c --- [ banner ] -------------------------------------------------------------
c 
c CaDiCaL SAT Solver
c Copyright (c) 2016-2024
c A. Biere, M. Fleury, N. Froleyks, K. Fazekas, F. Pollitt, T. Faller
c JKU Linz, University of Freiburg, TU Wien
c 
c Version 2.1.3 5296d3d2a9bf48c154ab2acb5e44625776d821bf
c g++ (Gentoo 12.3.1_p20230526 p2) 12.3.1 20230526 -Wall -Wextra -O3 -DNDEBUG
c Sat Aug 9 07:26:21 PDT 2025 Linux cedar2.int.cedar.computecanada.ca 5.14.0-362.24.2.el9_3.x86_64 x86_64
c 
c --- [ limit ] --------------------------------------------------------------
c 
c setting time limit to 1600 seconds real time (due to '-t 1600')
c 
c --- [ parsing input ] ------------------------------------------------------
c 
c reading DIMACS file from './data/cnfs//pdtswvtms14x8p1/pdtswvtms14x8p1.77.cnf'
c opening file to read './data/cnfs//pdtswvtms14x8p1/pdtswvtms14x8p1.77.cnf'
c found 'p cnf 199661 593249' header
c parsed 593249 clauses in 0.09 seconds process time
c 
c --- [ options ] ------------------------------------------------------------
c 
c   --compact=false                (different from default 'true')
c   --decompose=false              (different from default 'true')
c   --deduplicate=false            (different from default 'true')
c   --elim=false                   (different from default 'true')
c   --probe=false                  (different from default 'true')
c   --reduce=false                 (different from default 'true')
c   --subsume=false                (different from default 'true')
c   --ternary=false                (different from default 'true')
c   --transred=false               (different from default 'true')
c   --vivify=false                 (different from default 'true')
c 
c --- [ solving ] ------------------------------------------------------------
c 
c time measured in process time since initialization
c 
c  seconds  reductions  redundant  irredundant
c         MB    restarts       trail       variables
c          level   conflicts       glue          remaining
c 
c *  0.09 94  0 0   0    0    0  0% 0 578416 184490 92%
c {  0.15 97  0 0   0    0    0  0% 0 578416 184490 92%
c i  0.15 97 95 0   0    9    6 10% 8 578416 184430 92%
c i  0.16 97 116 0   0  123   98 12% 7 578416 184421 92%
c i  0.17 97 59 0  13  302  252 11% 6 578416 184365 92%
c i  0.17 97 58 0  13  305  253 11% 6 578416 183556 92%
c i  0.17 97 57 0  13  314  261 11% 6 578416 183546 92%
c i  0.17 97 56 0  13  322  266 11% 6 578416 183498 92%
c i  0.17 97 55 0  13  341  280 11% 6 578416 183494 92%
c }  0.23 98 437 0  19 1002  785 28% 5 578416 183487 92%
c [  0.23 98  0 0  19 1002  785  0% 0 578416 183487 92%
c O  0.25 98 43 0  19 1003  786 94% 1 578416 183487 92%
c i  0.27 98 123 0  19 1011  793 73% 2 578416 183455 92%
c i  0.27 98 131 0  19 1025  804 70% 3 578416 183395 92%
c i  0.27 98 133 0  19 1099  857 68% 3 578416 183074 92%
c i  0.27 98 132 0  19 1107  860 68% 3 578416 182819 92%
c i  0.28 98 132 0  19 1162  908 69% 3 578416 182790 92%
c i  0.30 98 132 0  19 1307 1022 68% 7 578416 182674 91%
c i  0.31 98 133 0  19 1393 1096 67% 8 578416 182673 91%
c i  0.32 98 133 0  19 1414 1113 67% 8 578416 182660 91%
c 
c  seconds   reductions  redundant  irredundant
c         MB     restarts       trail       variables
c           level   conflicts       glue          remaining
c 
c i  0.32 98 132 0  19 1456 1151 67% 7 578416 182602 91%
c i  0.36 98 133 0  19 1706 1366 66% 7 578416 182585 91%
c i  0.36 98 133 0  19 1710 1368 66% 7 578416 182583 91%
c i  0.42 98 132 0  19 1982 1592 65% 6 578416 182529 91%
c i  0.43 98 132 0  19 2037 1635 65% 6 578416 182474 91%
c i  0.57 99 89 0  20 2962 2431 50% 6 578416 182459 91%
c ]  0.58 99 88 0  20 3005 2464 49% 6 578416 182459 91%
c {  0.58 99 437 0  20 3005 2464 28% 5 578416 182459 91%
c F  0.58 99 437 0  20 3006 2465 28% 5 578416 182459 91%
c i  0.61 99 410 0  28 3076 2527 28% 5 578416 182434 91%
c i  0.64 99 342 0  54 3289 2709 26% 5 578416 182422 91%
c i  0.64 99 342 0  54 3290 2709 26% 5 578416 182410 91%
c i  0.69 99 263 0  67 3736 3083 26% 5 578416 182319 91%
c i  0.74 99 214 0 118 4218 3507 26% 5 578416 182304 91%
c i  0.74 99 214 0 119 4221 3509 26% 5 578416 182248 91%
c i  0.75 99 210 0 130 4262 3540 25% 5 578416 182216 91%
c i  0.77 99 184 0 151 4639 3866 24% 5 578416 182203 91%
c i  0.77 99 184 0 151 4640 3866 24% 5 578416 182187 91%
c i  0.78 99 178 0 154 4735 3953 24% 5 578416 181991 91%
c i  0.85 99 166 0 154 5013 4183 24% 5 578416 181544 91%
c 
c  seconds   reductions  redundant  irredundant
c         MB     restarts       trail       variables
c           level   conflicts       glue          remaining
c 
c i  0.88 99 161 0 170 5156 4308 24% 5 578416 181507 91%
c i  0.89 99 157 0 174 5246 4369 24% 5 578416 181235 91%
c i  0.90 99 156 0 174 5275 4393 24% 5 578416 181226 91%
c i  0.90 99 155 0 174 5306 4415 24% 5 578416 181217 91%
... skipped 54 lines ...
c i  2.95 102 102 0 352 14144 11943 52% 6 578416 155914 78%
c i  3.05 102 97 0 352 14894 12625 53% 6 578416 155816 78%
c B  3.07 102 97 0 352 15010 12729 53% 6 578416 155290 78%
c ]  3.07 102 97 0 352 15010 12729 53% 6 578416 155290 78%
c {  3.07 102 161 0 352 15010 12729 28% 5 578416 155290 78%
c i  3.09 102 159 0 359 15078 12783 28% 5 578416 154487 77%
c i  3.09 102 158 0 359 15141 12833 28% 5 578416 154475 77%
c i  3.10 102 157 0 359 15177 12865 28% 5 578416 154461 77%
c i  3.10 102 156 0 359 15214 12899 28% 5 578416 154460 77%
c i  3.11 102 153 0 359 15310 12983 28% 5 578416 154442 77%
c i  3.12 102 151 0 359 15404 13060 28% 5 578416 154407 77%
c i  3.12 102 150 0 359 15417 13063 28% 5 578416 153967 77%
c 
c  seconds    reductions    redundant  irredundant
c          MB     restarts         trail       variables
c            level    conflicts        glue          remaining
c 
c i  3.12 102 150 0 359 15419 13063 28% 5 578416 153168 77%
c i  3.14 102 149 0 360 15482 13121 28% 5 578416 146273 73%
c i  3.14 102 149 0 360 15483 13121 28% 5 578416 145833 73%
c i  3.33 102 138 0 367 16014 13580 31% 5 578416 145617 73%
c i  3.39 102 136 0 375 16154 13703 32% 5 578416 145292 73%
c i  3.40 102 135 0 378 16172 13718 32% 5 578416 145286 73%
c i  3.43 102 134 0 378 16272 13797 32% 5 578416 145270 73%
c i  3.43 102 133 0 378 16296 13818 32% 5 578416 145269 73%
c i  3.54 102 127 0 387 16714 14178 34% 5 578416 145257 73%
c i  3.55 102 127 0 387 16759 14220 34% 5 578416 145193 73%
c i  3.68 102 124 0 410 16934 14362 34% 5 578416 143062 72%
c i  3.68 102 124 0 410 16935 14362 34% 5 578416 143029 72%
c i  3.71 102 123 0 410 17059 14465 35% 5 578416 142902 72%
c i  3.75 102 121 0 410 17204 14591 36% 5 578416 142392 71%
c i  3.75 102 121 0 410 17217 14602 36% 5 578416 142358 71%
c i  3.91 102 118 0 417 17484 14832 37% 5 578416 142304 71%
c i  3.92 102 118 0 420 17499 14844 37% 5 578416 142288 71%
c i  3.94 102 118 0 422 17505 14849 37% 5 578416 142272 71%
c i  4.02 102 116 0 438 17606 14943 37% 5 578416 142050 71%
c i  4.14 102 113 0 462 17833 15116 37% 5 578416 141690 71%
c 
c  seconds   reductions    redundant  irredundant
c          MB    restarts         trail       variables
c           level    conflicts        glue         remaining
c 
c i  5.02 102 99 0 519 19130 16138 41% 5 578416 81778 41%
c i  5.06 102 98 0 519 19216 16210 41% 5 578416 81567 41%
c i  5.07 102 97 0 519 19229 16217 41% 5 578416 81560 41%
c i  5.07 102 97 0 519 19231 16218 41% 5 578416 75142 38%
c }  5.07 102 97 0 519 19235 16219 41% 5 578416 75069 38%
c 0  5.07 102 97 0 519 19235 16219 41% 5 578416 75069 38%
c 
c --- [ result ] -------------------------------------------------------------
c 
s UNSATISFIABLE
c 
c --- [ run-time profiling ] -------------------------------------------------
c 
c process time taken by individual solving procedures
c (percentage relative to process time for solving)
c 
c         4.98  100.00% search
c         2.72   54.67% unstable
c         2.20   44.10% stable
c         0.09    1.81% parse
c         0.06    1.22% lucky
c         0.00    0.00% simplify
c   =================================
c         4.98   98.21% solve
c 
c last line shows process time for solving
c (percentage relative to total process time)
c 
c --- [ statistics ] ---------------------------------------------------------
c 
c chronological:              7475        38.86 %  of conflicts
c conflicts:                 19235      3863.47    per second
c decisions:                 49699      9982.34    per second
c fixed:                    124592        62.40 %  of all variables
c learned:                   18268        94.97 %  per conflict
c learned_lits:             601966       100.00 %  learned literals
c minimized:                     0         0.00 %  learned literals
c shrunken:                 124479        20.68 %  learned literals
c minishrunken:             119774        19.90 %  learned literals
c otfs:                        209         1.09 %  of conflict
c propagations:           73670153        14.80 M  per second
c rephased:                      5      3847.00    interval
c restarts:                    519        37.06    interval
c stabilizing:                   2        51.99 %  of conflicts
c subsumed:                   1944         0.33 %  of all clauses
c strengthened:                200         0.03 %  of all clauses
c 
c seconds are measured in process time for solving
c 
c --- [ resources ] ----------------------------------------------------------
c 
c total process time since initialization:         5.07    seconds
c total real time since initialization:            5.11    seconds
c maximum resident set size of process:          101.03    MB
c 
c --- [ shutting down ] ------------------------------------------------------
c 
c exit 20
